COLUMNS

passenger_count
pickup_ID
dropoff_ID
request_time_sec
pickup_district
dropoff_district
LDuals
IDuals
vehicle_ID
pick_position
drop_position

REQUESTS_INFO
2      527       604       29282     52        189       212       212       79        1         2         
3      291       486       29358     87        199       199.5     199.5     104       1         3         
2      827       416       29346     291       100       156       156       170       1         2         
1      498       860       29352     52        290       192       192       180       1         2         
1      463       675       29360     168       189       86        86        231       1         3         
3      455       573       29368     52        189       106       106       243       1         2         
3      289       348       29321     127       299       232       232       252       1         2         
3      546       625       29359     52        189       142       142       345       1         2         
3      1010      673       29314     290       189       173       173       346       1         2         
1      769       603       29354     290       189       95        95        399       1         4         
1      864       609       29347     290       189       122       122       426       1         3         
1      842       267       29347     290       266       125       125       432       1         4         
2      861       559       29328     290       189       166       166       471       1         2         
3      873       651       29341     291       189       149       149       485       1         2         
1      439       581       29340     189       189       130       130       492       1         3         
2      348       575       29329     299       189       206.5     206.5     509       1         2         
1      947       416       29317     290       100       155       155       529       1         2         
1      959       557       29355     291       189       107       107       607       1         3         
2      461       580       29360     189       189       135       135       724       1         2         
3      780       1245      29341     291       192       160       160       734       1         2         
1      928       925       29332     290       290       186       186       897       1         2         
1      747       489       29252     290       199       225       225       902       1         2         
1      644       82        29361     131       98        115       115       949       1         3         
1      598       671       29366     189       280       123       123       958       1         4         
1      767       904       29346     290       290       128       128       967       1         5         
1      881       938       29366     290       291       120       120       986       1         3         
2      234       397       29363     87        168       158       158       1003      1         2         
1      1045      1149      29360     291       291       112       112       1013      1         2         
1      324       759       29362     299       131       125       125       1068      1         3         
1      395       232       29349     100       266       169       169       1088      1         2         
2      949       79        29344     290       98        142       142       1163      1         3         
3      983       685       29349     291       999       139       139       1248      1         3         
1      664       759       29340     131       131       140       140       1253      1         3         
1      802       1068      29328     291       291       153       153       1281      1         2         
3      1230      1128      29344     129       291       147       147       1430      1         4         
1      1230      1338      29365     129       129       126       126       1430      2         3         
3      571       600       29342     52        280       141       141       1726      1         3         
1      850       718       29366     291       189       138       138       1824      1         2         
1      1069      805       29328     291       291       201       201       1834      1         3         
1      852       982       29367     291       291       97        97        1844      1         2         
1      296       280       29318     277       277       196.5     196.5     1896      1         2         
1      929       905       29341     290       290       158       158       1945      1         2         
2      397       606       29341     168       189       132       132       1951      1         3         
2      842       378       29332     290       168       171       171       1960      1         2         
2      433       531       29355     52        189       137       137       1965      1         3         
1      272       485       29364     127       189       160       160       1971      1         2         
1      485       235       29344     189       87        126       126       1974      1         4         
1      860       693       29341     290       280       146       146       1987      1         4         
1      232       311       29370     266       87        0         0         0         0         0         
1      602       393       29370     189       52        0         0         0         0         0         
1      534       467       29370     199       999       0         0         0         0         0         
1      745       676       29370     290       189       0         0         0         0         0         
1      309       325       29370     127       299       0         0         0         0         0         
1      442       558       29370     168       189       0         0         0         0         0         
1      33        782       29370     98        291       0         0         0         0         0         
3      906       662       29370     290       131       0         0         0         0         0         
3      906       662       29370     290       131       0         0         0         0         0         
1      990       768       29371     290       290       0         0         0         0         0         
1      1308      1518      29371     129       296       0         0         0         0         0         
1      559       577       29371     189       189       0         0         0         0         0         
3      749       629       29371     290       189       0         0         0         0         0         
1      578       858       29371     189       290       0         0         0         0         0         
1      247       370       29371     266       52        0         0         0         0         0         
3      749       629       29371     290       189       0         0         0         0         0         
1      603       63        29371     189       98        0         0         0         0         0         
1      479       606       29371     52        189       0         0         0         0         0         
1      189       575       29371     286       189       0         0         0         0         0         
1      398       575       29371     168       189       0         0         0         0         0         
2      672       460       29371     189       189       0         0         0         0         0         
3      815       581       29372     290       189       0         0         0         0         0         
2      815       581       29372     290       189       0         0         0         0         0         
1      325       368       29372     299       299       0         0         0         0         0         
2      1193      1150      29373     129       291       0         0         0         0         0         
1      115       693       29373     9         280       0         0         0         0         0         
3      630       814       29373     189       290       0         0         0         0         0         
1      732       701       29373     131       290       0         0         0         0         0         
2      646       116       29374     280       9         0         0         0         0         0         
1      287       21        29374     299       98        0         0         0         0         0         
1      780       871       29374     291       291       0         0         0         0         0         
1      829       980       29374     50        291       0         0         0         0         0         
2      1078      1218      29374     84        84        0         0         0         0         0         
1      938       628       29374     291       189       0         0         0         0         0         
1      969       604       29374     290       189       0         0         0         0         0         
1      896       599       29374     291       280       0         0         0         0         0         
3      646       116       29374     280       9         0         0         0         0         0         
2      393       310       29375     52        127       0         0         0         0         0         
2      969       671       29375     290       280       0         0         0         0         0         
1      838       698       29375     290       189       0         0         0         0         0         
2      330       651       29375     127       189       0         0         0         0         0         
1      1225      980       29375     192       291       0         0         0         0         0         
2      654       464       29375     189       168       0         0         0         0         0         
1      984       675       29375     291       189       0         0         0         0         0         
1      549       915       29376     52        291       0         0         0         0         0         
1      134       304       29376     9         299       0         0         0         0         0         
1      527       397       29376     52        168       0         0         0         0         0         
1      22        555       29376     98        199       0         0         0         0         0         
1      858       951       29377     290       290       0         0         0         0         0         
1      325       333       29377     299       119       0         0         0         0         0         
3      527       727       29377     52        290       0         0         0         0         0         
2      894       628       29377     291       189       0         0         0         0         0         
1      508       604       29377     199       189       0         0         0         0         0         
1      871       914       29378     291       291       0         0         0         0         0         
1      852       743       29378     291       290       0         0         0         0         0         
2      1026      1169      29378     291       291       0         0         0         0         0         
1      172       212       29378     286       266       0         0         0         0         0         
1      771       606       29378     290       189       0         0         0         0         0         
1      397       555       29378     168       199       0         0         0         0         0         
3      680       306       29378     290       299       0         0         0         0         0         
1      837       606       29378     290       189       0         0         0         0         0         
1      969       134       29378     290       9         0         0         0         0         0         
1      629       995       29378     189       84        0         0         0         0         0         
2      837       544       29378     290       52        0         0         0         0         0         
3      837       544       29378     290       52        0         0         0         0         0         
2      680       306       29378     290       299       0         0         0         0         0         
2      156       100       29379     286       57        0         0         0         0         0         
1      531       604       29379     189       189       0         0         0         0         0         
3      306       603       29379     299       189       0         0         0         0         0         
3      306       603       29379     299       189       0         0         0         0         0         
3      481       608       29379     189       189       0         0         0         0         0         
2      481       608       29379     189       189       0         0         0         0         0         
1      507       465       29380     189       199       0         0         0         0         0         
1      646       510       29380     280       199       0         0         0         0         0         
1      607       463       29380     189       168       0         0         0         0         0         
2      1475      893       29380     296       291       0         0         0         0         0         
4      654       577       29381     189       189       0         0         0         0         0         
1      212       580       29381     266       189       0         0         0         0         0         
1      366       649       29381     299       189       0         0         0         0         0         
1      356       544       29381     119       52        0         0         0         0         0         
1      1088      1024      29381     291       291       0         0         0         0         0         
2      699       748       29381     290       290       0         0         0         0         0         
1      559       722       29381     189       290       0         0         0         0         0         
1      529       650       29381     189       189       0         0         0         0         0         
1      969       604       29381     290       189       0         0         0         0         0         
1      523       61        29382     52        98        0         0         0         0         0         
1      170       578       29382     286       189       0         0         0         0         0         
2      712       687       29382     131       131       0         0         0         0         0         
3      712       687       29382     131       131       0         0         0         0         0         
1      908       48        29383     290       98        0         0         0         0         0         
3      947       1005      29383     290       50        0         0         0         0         0         
2      351       307       29383     52        127       0         0         0         0         0         
3      351       307       29383     52        127       0         0         0         0         0         
1      735       668       29383     131       280       0         0         0         0         0         
1      284       46        29384     299       98        0         0         0         0         0         
3      605       534       29384     189       199       0         0         0         0         0         
1      580       646       29384     189       280       0         0         0         0         0         
1      642       827       29384     131       291       0         0         0         0         0         
1      250       580       29385     127       189       0         0         0         0         0         
3      171       333       29385     286       119       0         0         0         0         0         
2      464       551       29385     168       189       0         0         0         0         0         
1      375       155       29385     119       286       0         0         0         0         0         
2      1053      992       29385     84        290       0         0         0         0         0         
3      805       935       29386     291       291       0         0         0         0         0         
1      529       601       29386     189       189       0         0         0         0         0         
2      746       558       29386     290       189       0         0         0         0         0         
1      904       1025      29387     290       291       0         0         0         0         0         
1      1192      1136      29387     129       129       0         0         0         0         0         
1      556       62        29387     199       98        0         0         0         0         0         
1      813       926       29387     290       290       0         0         0         0         0         
1      293       671       29387     87        280       0         0         0         0         0         
1      373       533       29387     119       199       0         0         0         0         0         
1      903       1160      29387     290       84        0         0         0         0         0         
1      485       440       29387     189       168       0         0         0         0         0         
1      803       860       29388     291       290       0         0         0         0         0         
1      31        117       29388     9         286       0         0         0         0         0         
1      1172      1075      29388     129       84        0         0         0         0         0         
2      812       903       29388     290       290       0         0         0         0         0         
1      549       697       29388     52        189       0         0         0         0         0         
1      941       738       29388     50        189       0         0         0         0         0         
1      466       653       29388     199       189       0         0         0         0         0         
1      528       532       29388     52        199       0         0         0         0         0         
1      549       738       29388     52        189       0         0         0         0         0         
1      882       460       29389     290       189       0         0         0         0         0         
3      837       905       29389     290       290       0         0         0         0         0         
3      842       594       29389     290       131       0         0         0         0         0         
2      837       905       29389     290       290       0         0         0         0         0         
1      434       191       29390     52        266       0         0         0         0         0         
1      959       430       29390     291       52        0         0         0         0         0         
3      479       48        29391     52        98        0         0         0         0         0         
1      700       748       29391     290       290       0         0         0         0         0         
1      888       630       29391     290       189       0         0         0         0         0         
1      604       718       29391     189       189       0         0         0         0         0         
3      578       527       29391     189       52        0         0         0         0         0         
2      578       527       29391     189       52        0         0         0         0         0         
3      479       48        29391     52        98        0         0         0         0         0         
1      971       399       29391     290       168       0         0         0         0         0         
1      1168      574       29391     291       189       0         0         0         0         0         
2      1199      1179      29392     84        84        0         0         0         0         0         
2      118       293       29392     286       87        0         0         0         0         0         
1      371       529       29392     52        189       0         0         0         0         0         
1      482       375       29392     189       119       0         0         0         0         0         
1      291       435       29392     87        52        0         0         0         0         0         
1      905       940       29392     290       291       0         0         0         0         0         
1      442       116       29393     168       9         0         0         0         0         0         
1      749       535       29393     290       189       0         0         0         0         0         
1      499       330       29393     52        127       0         0         0         0         0         
1      510       191       29394     199       266       0         0         0         0         0         
2      903       991       29394     290       290       0         0         0         0         0         
3      458       325       29394     52        299       0         0         0         0         0         
1      903       747       29394     290       290       0         0         0         0         0         
3      749       651       29395     290       189       0         0         0         0         0         
3      749       651       29395     290       189       0         0         0         0         0         
2      864       773       29395     290       290       0         0         0         0         0         
1      269       138       29395     127       57        0         0         0         0         0         
1      925       992       29395     290       290       0         0         0         0         0         
1      1009      649       29395     50        189       0         0         0         0         0         
2      1148      1227      29396     291       192       0         0         0         0         0         
1      972       724       29396     290       290       0         0         0         0         0         
2      509       375       29396     199       119       0         0         0         0         0         
1      771       695       29396     290       189       0         0         0         0         0         
3      794       439       29396     290       189       0         0         0         0         0         
1      738       604       29397     189       189       0         0         0         0         0         
2      649       638       29397     189       131       0         0         0         0         0         
2      1192      1224      29397     129       192       0         0         0         0         0         
1      527       418       29397     52        168       0         0         0         0         0         
1      945       1025      29397     50        291       0         0         0         0         0         
3      551       512       29398     189       199       0         0         0         0         0         
1      603       695       29398     189       189       0         0         0         0         0         
1      941       968       29398     50        290       0         0         0         0         0         
1      191       304       29398     266       299       0         0         0         0         0         
1      277       550       29398     87        189       0         0         0         0         0         
1      598       650       29399     189       189       0         0         0         0         0         
1      630       579       29399     189       189       0         0         0         0         0         
1      154       304       29399     286       299       0         0         0         0         0         
